
Gurobi 9.5.2 (mac64[arm]) logging started Fri Apr 28 14:46:49 2023

Set parameter LogFile to value "Java/output/pure_mip_2_machine/scenario_seed_4_nJob_40_machineCount_2/mip_increment_5/log.txt"
Gurobi Optimizer version 9.5.2 build v9.5.2rc0 (mac64[arm])
Thread count: 8 physical cores, 8 logical processors, using up to 8 threads
Optimize a model with 558 rows, 7140 columns and 29142 nonzeros
Model fingerprint: 0xdbb5dcf4
Variable types: 0 continuous, 7140 integer (7140 binary)
Coefficient statistics:
  Matrix range     [1e+00, 2e+02]
  Objective range  [5e+00, 2e+06]
  Bounds range     [1e+00, 1e+00]
  RHS range        [1e+00, 1e+00]
Presolve removed 12 rows and 1065 columns
Presolve time: 0.04s
Presolved: 546 rows, 6075 columns, 24921 nonzeros
Variable types: 0 continuous, 6075 integer (6075 binary)

Root relaxation: objective 1.103122e+04, 3328 iterations, 0.10 seconds (0.16 work units)

    Nodes    |    Current Node    |     Objective Bounds      |     Work
 Expl Unexpl |  Obj  Depth IntInf | Incumbent    BestBd   Gap | It/Node Time

     0     0 11031.2227    0  249          - 11031.2227      -     -    0s
H    0     0                    8266772.0000 11031.2227   100%     -    0s
H    0     0                    6198154.0000 11031.2227   100%     -    0s
H    0     0                    5557208.0000 11031.2227   100%     -    0s
H    0     0                    1806897.0000 11166.8841  99.4%     -    0s
H    0     0                    1662164.0000 11166.8841  99.3%     -    0s
     0     0 11166.9208    0  332 1662164.00 11166.9208  99.3%     -    0s
H    0     0                    1296377.0000 11166.9208  99.1%     -    0s
     0     0 11216.2057    0  380 1296377.00 11216.2057  99.1%     -    0s
H    0     0                    74100.000000 11216.2057  84.9%     -    0s
H    0     0                    71995.000000 11216.2057  84.4%     -    0s
H    0     0                    71969.000000 11216.2057  84.4%     -    0s
     0     0 11251.0359    0  355 71969.0000 11251.0359  84.4%     -    0s
     0     0 11253.6671    0  364 71969.0000 11253.6671  84.4%     -    0s
     0     0 11253.9499    0  367 71969.0000 11253.9499  84.4%     -    0s
     0     0 11253.9499    0  367 71969.0000 11253.9499  84.4%     -    0s
     0     0 11296.1936    0  393 71969.0000 11296.1936  84.3%     -    0s
H    0     0                    71838.000000 11296.1936  84.3%     -    0s
     0     0 11299.0297    0  389 71838.0000 11299.0297  84.3%     -    0s
     0     0 11299.3170    0  401 71838.0000 11299.3170  84.3%     -    0s
     0     0 11300.5418    0  391 71838.0000 11300.5418  84.3%     -    0s
     0     0 11301.6793    0  409 71838.0000 11301.6793  84.3%     -    0s
     0     0 11301.6796    0  410 71838.0000 11301.6796  84.3%     -    0s
     0     0 11385.6129    0  399 71838.0000 11385.6129  84.2%     -    1s
H    0     0                    69908.000000 11385.6129  83.7%     -    1s
H    0     0                    69680.000000 11385.6129  83.7%     -    1s
     0     0 11423.0337    0  394 69680.0000 11423.0337  83.6%     -    1s
     0     0 11426.9346    0  409 69680.0000 11426.9346  83.6%     -    1s
     0     0 11428.1437    0  413 69680.0000 11428.1437  83.6%     -    1s
     0     0 11428.3192    0  421 69680.0000 11428.3192  83.6%     -    1s
     0     0 11612.1667    0  410 69680.0000 11612.1667  83.3%     -    1s
H    0     0                    69560.000000 11612.1667  83.3%     -    1s
H    0     0                    69315.000000 11612.1667  83.2%     -    1s
     0     0 11629.5401    0  436 69315.0000 11629.5401  83.2%     -    1s
     0     0 11630.4143    0  440 69315.0000 11630.4143  83.2%     -    1s
     0     0 11630.8864    0  451 69315.0000 11630.8864  83.2%     -    1s
     0     0 11630.9672    0  449 69315.0000 11630.9672  83.2%     -    1s
     0     0 12413.1057    0  438 69315.0000 12413.1057  82.1%     -    1s
H    0     0                    69273.000000 12413.1057  82.1%     -    1s
H    0     0                    68095.000000 12413.1057  81.8%     -    1s
     0     0 12583.1362    0  432 68095.0000 12583.1362  81.5%     -    2s
     0     0 12728.1874    0  452 68095.0000 12728.1874  81.3%     -    2s
     0     0 12730.8337    0  448 68095.0000 12730.8337  81.3%     -    2s
     0     0 12731.4162    0  459 68095.0000 12731.4162  81.3%     -    2s
     0     0 12775.0171    0  476 68095.0000 12775.0171  81.2%     -    2s
H    0     0                    60199.000000 12775.0171  78.8%     -    2s
     0     0 12782.5372    0  470 60199.0000 12782.5372  78.8%     -    2s
     0     0 12786.2616    0  465 60199.0000 12786.2616  78.8%     -    2s
     0     0 12786.5299    0  474 60199.0000 12786.5299  78.8%     -    2s
     0     0 12830.0863    0  471 60199.0000 12830.0863  78.7%     -    2s
H    0     0                    60180.000000 12830.0863  78.7%     -    2s
     0     0 12885.5675    0  435 60180.0000 12885.5675  78.6%     -    2s
     0     0 12888.7765    0  452 60180.0000 12888.7765  78.6%     -    2s
     0     0 12889.4967    0  457 60180.0000 12889.4967  78.6%     -    2s
     0     0 13066.4875    0  463 60180.0000 13066.4875  78.3%     -    3s
H    0     0                    60170.000000 13066.4875  78.3%     -    3s
     0     0 13067.6759    0  470 60170.0000 13067.6759  78.3%     -    3s
     0     0 13077.1265    0  470 60170.0000 13077.1265  78.3%     -    3s
     0     0 13077.1265    0  466 60170.0000 13077.1265  78.3%     -    3s
     0     0 13078.3105    0  246 60170.0000 13078.3105  78.3%     -    3s
     0     0 13078.3105    0  333 60170.0000 13078.3105  78.3%     -    4s
     0     0 13078.3105    0  397 60170.0000 13078.3105  78.3%     -    4s
     0     0 13078.3105    0  401 60170.0000 13078.3105  78.3%     -    4s
     0     0 13078.3105    0  417 60170.0000 13078.3105  78.3%     -    4s
     0     0 13078.3105    0  442 60170.0000 13078.3105  78.3%     -    4s
     0     0 13078.3105    0  442 60170.0000 13078.3105  78.3%     -    4s
     0     0 13078.3105    0  447 60170.0000 13078.3105  78.3%     -    4s
     0     0 13078.3105    0  442 60170.0000 13078.3105  78.3%     -    4s
     0     0 13078.3105    0  458 60170.0000 13078.3105  78.3%     -    4s
     0     0 13078.3105    0  462 60170.0000 13078.3105  78.3%     -    4s
     0     0 13078.3105    0  466 60170.0000 13078.3105  78.3%     -    4s
     0     0 13078.3105    0  468 60170.0000 13078.3105  78.3%     -    4s
     0     0 13078.3105    0  478 60170.0000 13078.3105  78.3%     -    4s
     0     0 13078.3105    0  470 60170.0000 13078.3105  78.3%     -    4s
H    0     0                    54410.000000 13078.3105  76.0%     -    4s
     0     0 15203.6039    0  426 54410.0000 15203.6039  72.1%     -    4s
H    0     0                    54330.000000 15203.6039  72.0%     -    4s
H    0     0                    54250.000000 15203.6039  72.0%     -    4s
     0     0 15206.3778    0  422 54250.0000 15206.3778  72.0%     -    4s
     0     0 15257.2708    0  438 54250.0000 15257.2708  71.9%     -    4s
     0     0 15259.4061    0  456 54250.0000 15259.4061  71.9%     -    4s
     0     0 15284.7196    0  465 54250.0000 15284.7196  71.8%     -    5s
     0     0 15284.7196    0  460 54250.0000 15284.7196  71.8%     -    5s
H    0     0                    25449.000000 15284.7196  39.9%     -    5s
H    0     0                    16082.000000 15286.1924  4.95%     -    5s
     0     0 15286.1924    0  242 16082.0000 15286.1924  4.95%     -    5s
H    0     0                    16072.000000 15286.1924  4.89%     -    5s
H    0     0                    16062.000000 15286.1924  4.83%     -    5s
     0     0 15286.1924    0  351 16062.0000 15286.1924  4.83%     -    5s
H    0     0                    16052.000000 15286.1924  4.77%     -    5s
H    0     0                    15957.000000 15286.1924  4.20%     -    5s
     0     0 15286.1924    0  395 15957.0000 15286.1924  4.20%     -    5s
     0     0 15286.1924    0  393 15957.0000 15286.1924  4.20%     -    5s
     0     0 15286.4595    0  404 15957.0000 15286.4595  4.20%     -    5s
     0     0 15289.1899    0  391 15957.0000 15289.1899  4.19%     -    5s
     0     0 15289.3482    0  377 15957.0000 15289.3482  4.18%     -    5s
     0     0 15289.3652    0  377 15957.0000 15289.3652  4.18%     -    5s
     0     0 15306.7357    0  406 15957.0000 15306.7357  4.08%     -    6s
     0     0 15309.8434    0  397 15957.0000 15309.8434  4.06%     -    6s
     0     0 15310.0840    0  418 15957.0000 15310.0840  4.05%     -    6s
H    0     0                    15947.000000 15310.0840  3.99%     -    6s
H    0     0                    15871.000000 15310.0840  3.53%     -    6s
     0     0 15316.3729    0  418 15871.0000 15316.3729  3.49%     -    6s
H    0     0                    15866.000000 15316.3729  3.46%     -    6s
     0     0 15317.2586    0  416 15866.0000 15317.2586  3.46%     -    6s
     0     0 15317.4637    0  420 15866.0000 15317.4637  3.46%     -    6s
     0     0 15323.9192    0  436 15866.0000 15323.9192  3.42%     -    6s
     0     0 15324.1774    0  436 15866.0000 15324.1774  3.41%     -    6s
     0     0 15325.1311    0  433 15866.0000 15325.1311  3.41%     -    6s
     0     0 15325.1311    0  427 15866.0000 15325.1311  3.41%     -    6s
     0     0 15327.1353    0  247 15866.0000 15327.1353  3.40%     -    6s
     0     0 15327.1353    0  346 15866.0000 15327.1353  3.40%     -    6s
     0     0 15327.1353    0  326 15866.0000 15327.1353  3.40%     -    6s
     0     0 15327.1353    0  350 15866.0000 15327.1353  3.40%     -    6s
     0     0 15327.1353    0  341 15866.0000 15327.1353  3.40%     -    6s
     0     0 15327.1353    0  346 15866.0000 15327.1353  3.40%     -    6s
     0     0 15327.1353    0  347 15866.0000 15327.1353  3.40%     -    6s
H    0     0                    15856.000000 15327.1353  3.34%     -    6s
     0     0 15327.1353    0  392 15856.0000 15327.1353  3.34%     -    6s
     0     0 15327.1353    0  398 15856.0000 15327.1353  3.34%     -    6s
     0     0 15327.1353    0  388 15856.0000 15327.1353  3.34%     -    6s
     0     0 15327.1353    0  393 15856.0000 15327.1353  3.34%     -    6s
     0     0 15327.1353    0  400 15856.0000 15327.1353  3.34%     -    6s
     0     0 15327.1353    0  402 15856.0000 15327.1353  3.34%     -    6s
     0     0 15327.1353    0  417 15856.0000 15327.1353  3.34%     -    6s
     0     0 15327.1353    0  395 15856.0000 15327.1353  3.34%     -    6s
     0     0 15327.1353    0  400 15856.0000 15327.1353  3.34%     -    6s
H    0     0                    15842.000000 15327.1353  3.25%     -    6s
     0     0 15327.1353    0  397 15842.0000 15327.1353  3.25%     -    6s
H    0     0                    15840.000000 15327.1353  3.24%     -    6s
     0     0 15327.1353    0  408 15840.0000 15327.1353  3.24%     -    6s
     0     0 15327.1353    0  418 15840.0000 15327.1353  3.24%     -    7s
     0     0 15327.1353    0  438 15840.0000 15327.1353  3.24%     -    7s
     0     0 15327.1353    0  421 15840.0000 15327.1353  3.24%     -    7s
     0     0 15327.1353    0  422 15840.0000 15327.1353  3.24%     -    7s
     0     0 15327.1353    0  443 15840.0000 15327.1353  3.24%     -    7s
     0     0 15327.7026    0  431 15840.0000 15327.7026  3.23%     -    7s
     0     0 15328.1220    0  439 15840.0000 15328.1220  3.23%     -    7s
     0     0 15328.2003    0  451 15840.0000 15328.2003  3.23%     -    7s
     0     0 15329.4827    0  456 15840.0000 15329.4827  3.22%     -    7s
     0     0 15329.4827    0  451 15840.0000 15329.4827  3.22%     -    7s
     0     2 15330.6989    0  451 15840.0000 15330.6989  3.22%     -    7s
H   68    74                    15745.000000 15391.7309  2.24%   544    8s
H   99    95                    15718.000000 15391.7309  2.08%   473    8s
H   99    95                    15689.000000 15391.7309  1.89%   473    8s
H  134   127                    15618.000000 15391.7309  1.45%   457    8s
H  184   130                    15616.000000 15391.7309  1.44%   404    8s
H  188   130                    15608.000000 15391.7309  1.39%   397    8s
H  190   130                    15589.000000 15391.7309  1.27%   401    8s
H  194   130                    15549.000000 15391.7309  1.01%   403    8s
H  195   130                    15524.000000 15391.7309  0.85%   402    8s
*  448   174              31    15510.000000 15438.5608  0.46%   277    9s
   746   106     cutoff   18      15510.0000 15483.7148  0.17%   226   10s

Cutting planes:
  Gomory: 9
  Cover: 23
  Clique: 85
  MIR: 129
  StrongCG: 13
  GUB cover: 132
  Zero half: 39
  RLT: 7

Explored 1224 nodes (252950 simplex iterations) in 10.16 seconds (16.72 work units)
Thread count was 8 (of 8 available processors)

Solution count 10: 15510 15524 15549 ... 15745

Optimal solution found (tolerance 1.00e-04)
Best objective 1.551000000000e+04, best bound 1.551000000000e+04, gap 0.0000%
